NAME : tsp35_2.206.tour
COMMENT : Length = 206
COMMENT : Found by LKH [Keld Helsgaun]
TYPE : TOUR
DIMENSION : 35
TOUR_SECTION
1
3
32
30
23
4
17
35
13
27
34
29
31
18
11
5
9
12
2
14
33
26
19
15
6
20
22
21
24
16
10
8
7
25
28
-1
EOF
